75
1 0 1
3 0 3
3 2 2
4 2 2
4 3 3
5 0 5
5 2 3
5 4 4
6 1 2
6 2 5
6 4 3
7 1 5
7 2 1
7 3 3
7 4 2
7 5 4
7 6 2
8 0 5
8 3 1
8 5 1
8 6 2
9 8 4
10 2 3
10 3 3
10 4 2
10 5 5
10 6 2
10 7 2
10 8 3
11 0 4
11 2 3
11 3 2
11 4 2
11 5 1
11 10 3
12 0 5
12 2 5
12 4 4
12 5 3
12 6 5
12 7 1
12 8 4
12 9 3
12 11 4
13 4 2
13 5 4
13 8 4
13 9 5
13 10 3
13 12 2
14 0 1
14 7 1
14 9 4
14 10 3
14 12 3
15 0 5
15 5 5
15 7 5
15 8 3
15 9 5
15 10 2
15 11 3
15 12 1
16 0 4
16 5 2
16 6 5
16 11 5
16 12 4
16 13 4
16 14 2
16 15 1
17 0 4
17 1 2
17 2 1
17 4 1
17 7 2
17 8 3
17 9 4
17 13 3
17 15 2
18 1 3
18 2 2
18 3 1
18 4 4
18 5 3
18 7 4
18 9 3
18 10 2
18 12 1
18 14 1
18 15 1
18 16 1
18 17 2
19 1 5
19 4 4
19 6 1
19 7 4
19 8 4
19 11 1
19 12 2
19 15 1
19 16 4
20 2 2
20 3 1
20 6 2
20 8 5
20 16 3
20 18 3
20 19 1
21 0 4
21 1 4
21 2 1
21 4 3
21 9 5
21 12 2
21 13 1
21 15 2
21 16 2
21 17 1
21 19 5
22 2 1
22 5 4
22 6 1
22 11 1
22 15 2
22 16 1
22 17 2
22 19 4
22 20 4
22 21 2
23 0 1
23 4 3
23 8 2
23 9 3
23 10 5
23 12 1
23 13 1
23 14 1
23 18 3
23 22 3
24 0 3
24 1 5
24 2 2
24 3 4
24 4 4
24 5 2
24 6 2
24 8 4
24 10 5
24 11 4
24 13 3
24 15 1
24 19 4
24 21 4
24 22 3
24 23 5
25 3 4
25 5 2
25 6 4
25 9 4
25 10 4
25 14 2
25 17 4
25 23 2
25 24 1
26 2 1
26 5 5
26 8 4
26 13 1
26 15 1
26 17 3
26 19 5
26 20 5
26 22 5
27 3 2
27 4 2
27 7 5
27 11 2
27 12 4
27 13 5
27 14 2
27 16 1
27 18 1
27 19 2
27 20 5
27 21 5
27 22 5
27 23 2
27 24 5
27 25 1
28 1 1
28 3 1
28 4 1
28 5 1
28 6 3
28 8 1
28 10 2
28 17 4
28 20 2
28 21 1
28 22 3
28 23 4
28 24 3
28 26 4
28 27 5
29 1 3
29 5 1
29 12 1
29 15 3
29 17 2
29 19 1
29 20 2
29 21 4
29 22 3
29 23 2
29 25 1
29 26 1
29 27 5
30 1 4
30 5 2
30 8 3
30 11 2
30 12 4
30 13 3
30 14 4
30 22 5
30 23 2
30 27 5
30 29 4
31 0 4
31 1 5
31 3 4
31 6 1
31 7 4
31 8 5
31 9 4
31 10 4
31 11 5
31 12 2
31 13 5
31 15 5
31 17 3
31 18 4
31 20 5
31 21 4
31 23 5
31 24 4
31 25 1
31 26 1
31 30 1
32 0 1
32 2 3
32 3 2
32 4 1
32 5 3
32 7 4
32 8 4
32 10 2
32 14 2
32 15 3
32 17 5
32 18 1
32 20 3
32 22 5
32 23 4
32 26 4
32 31 5
33 0 4
33 3 3
33 4 3
33 6 5
33 8 3
33 10 3
33 12 4
33 13 1
33 15 2
33 17 3
33 18 5
33 24 1
33 25 1
33 27 1
33 28 5
33 29 3
33 30 3
34 1 2
34 2 1
34 4 1
34 5 2
34 6 1
34 7 4
34 9 2
34 11 5
34 12 2
34 15 1
34 16 3
34 17 3
34 19 5
34 22 4
34 25 3
34 26 4
34 27 2
34 28 5
34 31 4
34 33 2
35 0 1
35 3 3
35 4 1
35 5 4
35 6 4
35 7 4
35 9 5
35 12 2
35 14 4
35 15 3
35 16 3
35 17 5
35 24 4
35 25 2
35 27 2
35 28 2
35 29 2
35 31 5
36 2 1
36 4 5
36 5 2
36 11 5
36 12 3
36 13 2
36 17 5
36 20 4
36 22 2
36 23 2
36 24 1
36 26 1
36 28 1
36 30 5
36 32 1
36 33 1
36 34 1
37 0 4
37 4 1
37 5 2
37 8 3
37 9 4
37 13 4
37 16 1
37 17 4
37 18 1
37 20 3
37 21 1
37 23 2
37 28 3
37 34 5
37 35 3
38 1 4
38 2 5
38 3 3
38 4 4
38 5 2
38 6 5
38 7 4
38 9 3
38 10 3
38 12 3
38 13 1
38 17 2
38 19 2
38 20 5
38 24 2
38 26 5
38 27 2
38 28 5
38 31 2
38 33 5
38 34 2
38 35 5
38 36 2
38 37 5
39 0 4
39 1 2
39 2 3
39 6 1
39 7 5
39 9 2
39 13 3
39 15 2
39 16 1
39 17 5
39 18 3
39 19 2
39 20 5
39 22 1
39 24 3
39 26 2
39 27 3
39 28 4
39 31 3
39 32 3
39 33 5
40 1 2
40 2 4
40 4 1
40 5 1
40 8 2
40 9 5
40 10 4
40 12 2
40 13 3
40 15 2
40 17 3
40 20 5
40 22 5
40 23 5
40 24 5
40 26 5
40 27 5
40 29 2
40 30 5
40 31 5
40 33 5
40 34 3
40 36 2
40 38 3
40 39 3
41 0 1
41 2 2
41 3 5
41 4 4
41 8 3
41 10 3
41 11 3
41 12 3
41 13 3
41 14 4
41 17 4
41 18 3
41 20 3
41 21 5
41 23 4
41 26 5
41 29 3
41 30 1
41 31 2
41 34 5
41 36 3
41 38 5
41 39 3
41 40 5
42 2 2
42 5 2
42 8 1
42 9 5
42 10 2
42 11 2
42 12 4
42 15 2
42 17 1
42 18 5
42 19 2
42 20 5
42 24 1
42 27 3
42 28 4
42 32 5
42 33 2
42 34 1
42 35 5
42 36 4
42 38 4
43 0 3
43 1 4
43 2 2
43 7 1
43 8 2
43 10 3
43 12 4
43 13 2
43 14 5
43 20 3
43 22 1
43 24 4
43 25 3
43 26 2
43 28 5
43 30 3
43 33 1
43 37 4
43 41 4
43 42 4
44 0 4
44 11 4
44 14 3
44 15 2
44 17 1
44 18 1
44 20 3
44 23 2
44 27 2
44 28 3
44 30 3
44 31 2
44 32 1
44 34 4
44 37 1
44 39 1
44 42 2
44 43 3
45 0 5
45 2 2
45 3 1
45 4 5
45 5 4
45 6 3
45 8 2
45 12 1
45 13 2
45 16 1
45 17 3
45 18 1
45 19 3
45 20 4
45 21 2
45 27 5
45 28 1
45 29 4
45 32 2
45 33 4
45 35 1
45 40 4
45 41 4
45 42 3
45 43 5
46 0 4
46 1 2
46 5 4
46 8 1
46 9 4
46 12 3
46 13 5
46 15 1
46 18 2
46 19 3
46 20 5
46 24 5
46 25 3
46 26 2
46 29 5
46 36 3
46 37 3
46 39 3
46 41 5
47 0 5
47 2 3
47 3 4
47 4 5
47 5 4
47 8 2
47 10 1
47 13 5
47 14 4
47 17 2
47 18 1
47 21 5
47 23 2
47 25 2
47 27 1
47 28 3
47 29 1
47 30 2
47 31 2
47 32 1
47 34 3
47 35 3
47 37 3
47 39 3
47 40 5
47 41 3
47 42 2
47 43 5
47 46 2
48 0 5
48 2 2
48 6 1
48 10 4
48 11 5
48 13 4
48 14 4
48 15 5
48 17 4
48 18 2
48 19 2
48 21 4
48 23 3
48 26 3
48 27 5
48 28 5
48 29 5
48 30 1
48 31 5
48 32 3
48 34 1
48 35 2
48 36 1
48 37 2
48 40 3
48 43 4
48 45 5
48 46 4
49 0 4
49 3 5
49 5 4
49 10 4
49 12 4
49 13 4
49 14 1
49 17 4
49 21 4
49 23 4
49 24 4
49 27 1
49 28 4
49 29 5
49 30 5
49 32 1
49 34 4
49 36 1
49 39 5
49 40 5
49 41 5
49 45 1
49 46 4
50 0 2
50 3 5
50 5 1
50 7 2
50 9 3
50 12 5
50 13 2
50 15 3
50 16 5
50 21 4
50 22 3
50 26 1
50 33 1
50 34 5
50 35 4
50 40 2
50 44 2
50 45 3
50 46 4
50 47 1
51 1 4
51 2 2
51 3 5
51 4 4
51 9 2
51 11 5
51 12 5
51 13 2
51 14 4
51 16 1
51 18 5
51 19 4
51 20 5
51 23 4
51 27 3
51 28 2
51 29 5
51 30 4
51 31 2
51 32 4
51 33 3
51 34 4
51 35 1
51 36 2
51 37 1
51 39 1
51 41 2
51 42 4
51 43 4
51 44 4
51 47 3
51 48 3
51 49 1
51 50 1
52 4 4
52 5 3
52 8 2
52 11 1
52 12 5
52 14 5
52 16 2
52 18 1
52 19 2
52 20 3
52 21 5
52 24 3
52 25 4
52 26 3
52 27 5
52 28 1
52 34 1
52 35 1
52 36 5
52 37 1
52 38 4
52 39 4
52 42 4
52 43 5
52 46 5
52 47 4
52 49 1
52 50 2
52 51 1
53 0 4
53 1 5
53 3 3
53 6 1
53 9 2
53 10 4
53 12 3
53 14 3
53 18 4
53 19 4
53 22 4
53 26 2
53 27 4
53 28 4
53 31 2
53 32 5
53 33 5
53 35 2
53 38 2
53 39 3
53 42 5
53 46 4
53 48 2
53 49 2
53 50 4
53 52 5
54 1 2
54 4 4
54 5 3
54 6 2
54 8 3
54 9 1
54 10 5
54 15 5
54 16 4
54 19 3
54 20 1
54 23 5
54 25 1
54 26 1
54 27 3
54 31 2
54 33 1
54 34 4
54 35 2
54 36 5
54 37 5
54 38 3
54 39 3
54 40 2
54 42 4
54 44 2
54 45 1
54 47 5
54 49 1
54 50 4
54 51 3
55 3 1
55 4 4
55 5 4
55 7 5
55 10 4
55 11 2
55 14 5
55 15 1
55 17 1
55 19 2
55 21 2
55 25 3
55 28 1
55 29 3
55 32 1
55 37 4
55 38 3
55 39 3
55 40 3
55 41 2
55 43 1
55 47 5
55 48 3
56 1 3
56 4 3
56 5 1
56 6 4
56 7 1
56 8 3
56 9 1
56 14 5
56 15 5
56 18 3
56 19 3
56 22 5
56 23 3
56 25 1
56 26 4
56 28 3
56 29 4
56 31 1
56 33 1
56 34 5
56 37 1
56 39 1
56 40 2
56 48 3
56 49 3
56 51 1
56 52 3
56 53 4
57 3 5
57 5 2
57 7 5
57 10 2
57 12 2
57 16 1
57 19 5
57 21 1
57 22 1
57 27 1
57 29 4
57 31 4
57 32 5
57 34 4
57 35 5
57 36 4
57 40 4
57 41 4
57 45 4
57 47 3
57 50 1
57 53 3
57 55 5
58 0 3
58 1 3
58 3 2
58 5 2
58 8 2
58 11 4
58 12 3
58 13 2
58 15 3
58 17 2
58 19 5
58 20 5
58 22 4
58 24 3
58 26 2
58 27 5
58 29 4
58 31 4
58 32 2
58 33 2
58 34 4
58 36 4
58 38 2
58 40 2
58 41 2
58 43 5
58 45 5
58 46 1
58 48 3
58 49 5
58 51 3
58 54 2
59 1 5
59 4 5
59 5 5
59 11 1
59 13 1
59 15 1
59 16 4
59 18 1
59 20 1
59 22 5
59 24 3
59 25 3
59 26 3
59 27 5
59 30 1
59 31 4
59 32 1
59 33 3
59 35 1
59 38 5
59 42 1
59 46 1
59 49 1
59 50 5
59 53 5
59 54 2
60 0 1
60 1 5
60 2 5
60 5 2
60 9 5
60 13 3
60 14 1
60 15 3
60 17 5
60 18 4
60 19 1
60 20 1
60 24 4
60 26 4
60 27 4
60 28 3
60 30 3
60 31 3
60 34 1
60 35 2
60 37 5
60 39 2
60 40 5
60 43 2
60 47 2
60 50 2
60 51 4
60 53 3
60 55 2
60 56 1
60 58 1
61 3 2
61 4 5
61 13 2
61 14 1
61 15 5
61 17 4
61 18 2
61 19 5
61 20 5
61 25 5
61 27 5
61 28 2
61 29 2
61 30 2
61 31 2
61 32 3
61 33 2
61 36 3
61 41 5
61 42 5
61 43 3
61 44 1
61 46 3
61 47 2
61 49 4
61 50 4
61 52 1
61 53 3
61 54 5
61 56 2
61 58 1
61 60 1
62 0 3
62 5 4
62 6 5
62 8 5
62 11 4
62 12 2
62 14 4
62 15 1
62 16 3
62 17 2
62 18 4
62 19 1
62 20 1
62 21 1
62 22 5
62 24 3
62 28 3
62 31 5
62 32 5
62 35 1
62 36 5
62 38 5
62 39 4
62 40 5
62 41 1
62 42 3
62 44 1
62 45 2
62 46 4
62 49 3
62 50 2
62 52 5
62 53 3
62 57 5
62 58 3
63 0 1
63 2 1
63 4 5
63 6 1
63 8 3
63 9 1
63 11 3
63 13 1
63 16 1
63 19 1
63 21 3
63 22 3
63 25 3
63 26 3
63 28 1
63 29 4
63 30 5
63 34 4
63 36 3
63 38 4
63 39 2
63 40 3
63 41 1
63 42 3
63 44 1
63 48 4
63 51 4
63 53 3
63 54 4
63 55 3
63 58 4
64 5 2
64 8 5
64 15 1
64 16 2
64 17 3
64 18 1
64 19 3
64 20 3
64 22 5
64 23 4
64 28 4
64 30 4
64 31 3
64 35 2
64 36 2
64 37 3
64 38 5
64 39 5
64 44 2
64 45 1
64 47 2
64 48 3
64 49 5
64 51 2
64 52 3
64 53 4
64 56 1
64 60 2
64 61 3
64 63 4
65 3 3
65 4 2
65 5 5
65 6 2
65 8 4
65 10 3
65 11 2
65 14 1
65 15 4
65 16 2
65 18 5
65 19 2
65 21 4
65 22 3
65 23 4
65 24 2
65 25 1
65 27 2
65 28 5
65 30 5
65 34 2
65 36 1
65 37 2
65 38 4
65 39 2
65 40 1
65 42 1
65 46 2
65 48 4
65 49 3
65 50 2
65 53 4
65 54 4
65 59 2
65 60 1
65 62 3
65 63 5
65 64 3
66 0 5
66 2 1
66 3 5
66 5 3
66 6 1
66 7 3
66 8 5
66 10 2
66 11 2
66 13 4
66 14 2
66 18 2
66 20 1
66 21 1
66 22 2
66 23 1
66 24 5
66 28 1
66 29 4
66 32 3
66 34 1
66 36 5
66 38 2
66 39 2
66 40 1
66 42 1
66 43 1
66 46 1
66 51 4
66 52 5
66 54 1
66 55 3
66 57 4
66 59 2
66 63 2
66 65 1
67 2 2
67 3 3
67 5 1
67 6 5
67 8 2
67 11 4
67 12 4
67 14 5
67 15 3
67 17 4
67 18 3
67 22 3
67 25 3
67 28 2
67 29 1
67 30 2
67 33 2
67 35 1
67 36 5
67 39 3
67 40 4
67 43 5
67 44 4
67 45 1
67 46 3
67 49 4
67 51 3
67 56 3
67 57 3
67 59 5
67 60 1
67 62 1
67 63 3
67 65 4
67 66 3
68 1 4
68 2 4
68 3 1
68 5 2
68 8 3
68 10 4
68 12 4
68 18 2
68 19 4
68 22 4
68 23 5
68 24 5
68 28 5
68 31 4
68 32 3
68 34 3
68 35 4
68 37 5
68 38 5
68 42 2
68 45 4
68 46 2
68 48 5
68 50 1
68 51 5
68 54 2
68 57 1
68 58 2
68 60 2
68 61 4
68 64 2
69 0 2
69 2 1
69 4 3
69 5 5
69 8 4
69 9 4
69 12 4
69 16 4
69 17 4
69 19 1
69 23 3
69 30 2
69 32 1
69 33 3
69 34 5
69 36 3
69 38 1
69 39 4
69 40 2
69 42 5
69 45 5
69 47 1
69 51 4
69 52 4
69 53 1
69 60 3
69 61 5
69 66 3
70 0 2
70 1 5
70 4 2
70 6 2
70 7 5
70 10 5
70 13 1
70 14 2
70 15 5
70 16 2
70 18 3
70 20 3
70 21 4
70 24 2
70 25 2
70 29 2
70 31 1
70 32 2
70 33 3
70 38 4
70 39 2
70 40 4
70 41 4
70 42 1
70 43 1
70 44 3
70 46 5
70 47 3
70 50 4
70 51 5
70 56 1
70 57 4
70 59 4
70 60 5
70 65 3
70 66 1
70 67 5
70 69 4
71 2 5
71 3 3
71 8 2
71 10 5
71 15 3
71 16 5
71 19 3
71 23 3
71 27 2
71 28 2
71 30 3
71 31 2
71 35 3
71 36 3
71 40 4
71 41 3
71 46 5
71 47 2
71 51 1
71 52 5
71 54 1
71 55 5
71 59 5
71 62 5
71 64 2
71 67 1
71 70 5
72 2 2
72 4 3
72 5 2
72 6 3
72 17 2
72 18 1
72 19 2
72 20 3
72 22 5
72 25 2
72 27 5
72 29 4
72 30 1
72 31 2
72 32 5
72 33 2
72 35 2
72 38 2
72 40 3
72 45 2
72 47 4
72 49 4
72 53 3
72 55 4
72 57 5
72 58 4
72 59 1
72 60 5
72 61 5
72 62 3
72 66 3
72 67 2
73 2 1
73 3 1
73 4 5
73 6 2
73 8 2
73 11 4
73 13 5
73 14 5
73 16 1
73 17 4
73 18 1
73 19 1
73 20 4
73 21 3
73 24 4
73 26 3
73 27 5
73 28 2
73 31 3
73 33 3
73 34 3
73 36 4
73 37 5
73 39 3
73 43 4
73 44 1
73 45 3
73 48 2
73 50 1
73 51 1
73 52 2
73 56 3
73 60 2
73 62 1
73 64 1
73 65 5
73 66 2
73 68 1
73 72 4
74 1 2
74 4 2
74 5 5
74 6 2
74 10 2
74 12 2
74 13 4
74 14 3
74 16 1
74 17 5
74 18 4
74 19 2
74 20 2
74 22 3
74 23 5
74 28 3
74 30 3
74 32 5
74 37 3
74 38 1
74 39 5
74 41 1
74 43 2
74 44 2
74 46 3
74 48 3
74 50 1
74 53 4
74 54 4
74 57 3
74 58 1
74 60 4
74 61 5
74 62 4
74 65 3
74 66 3
74 70 3
74 71 1
74 73 4
